NAME : LPS-n25-m322
COMMENT : (Lartu-Peter-Santi Plot, instance 9122 out of 39200. 25 customers.)
TYPE : CVRP
DIMENSION : 25
EDGE_WEIGHT_TYPE : EUC_2D
CAPACITY : 147
NODE_COORD_SECTION
 1 45 89
 2 78 65
 3 93 24
 4 94 93
 5 88 80
 6 93 79
 7 79 16
 8 26 68
 9 59 40
 10 91 52
 11 53 45
 12 74 51
 13 89 80
 14 70 7
 15 95 82
 16 5 56
 17 24 70
 18 53 17
 19 18 37
 20 0 47
 21 8 46
 22 4 60
 23 73 67
 24 22 99
 25 86 7
DEMAND_SECTION
1 0
2 50
3 73
4 85
5 18
6 59
7 46
8 65
9 63
10 139
11 50
12 12
13 45
14 37
15 143
16 39
17 51
18 18
19 63
20 79
21 45
22 119
23 25
24 122
25 7
DEPOT_SECTION
 1
 -1
EOF
